20
1	93	62	69	61
4	71	26	31	87
6	59	52	47	98
7	13	51	14	84
8	30	44	43	96
7	90	30	63	25
4	105	64	57	2
5	15	42	21	23
7	83	61	44	5
10	61	54	14	59
7	58	25	57	92
2	97	41	91	33
9	56	23	4	91
4	57	32	76	19
6	34	35	94	28
7	1	33	23	7
5	11	52	85	76
1	98	50	62	62
3	3	22	37	0
4	93	33	47	64
